Reading model...
...model read.
creating competitive generators file...
...competitive generators recorded.
Loading data...
.. real-time data read.
Compiling instance...
...instance created.
Creating Offer Mitigation (model will solve as dispatch if TRUE)...
NOTE: storage offers will not be mitigated
...storage offer mitigation file created
Converting model to MPEC...
...converted
NOTE: initial MIP solve with only storage competitive to get feasible solution
Solving...

Welcome to IBM(R) ILOG(R) CPLEX(R) Interactive Optimizer 12.9.0.0
  with Simplex, Mixed Integer & Barrier Optimizers
5725-A06 5725-A29 5724-Y48 5724-Y49 5724-Y54 5724-Y55 5655-Y21
Copyright IBM Corp. 1988, 2019.  All Rights Reserved.

Type 'help' for a list of available commands.
Type 'help' followed by a command name for more
information on commands.

CPLEX> Logfile 'cplex.log' closed.
Logfile 'C:\Users\llavin\Desktop\test826\logs\tmp99u12bat.cplex.log' open.
CPLEX> New value for parallel optimization mode: -1
CPLEX> New value for emphasis for MIP optimization: 1
CPLEX> New value for mixed integer optimality gap tolerance: 0.01
CPLEX> New value for integrality tolerance: 1e-12
CPLEX> New value for deterministic time limit in ticks: 65000
CPLEX> Problem 'C:\Users\llavin\Desktop\test826\logs\tmp4uc9dflj.pyomo.lp' read.
Read time = 0.47 sec. (28.91 ticks)
CPLEX> Problem name         : C:\Users\llavin\Desktop\test826\logs\tmp4uc9dflj.pyomo.lp
Objective sense      : Maximize
Variables            :  107803  [Nneg: 1,  Box: 44062,  Free: 8928,
                                 Binary: 54812]
Objective nonzeros   :   17485
Linear constraints   :  246963  [Less: 82886,  Greater: 118460,  Equal: 45617]
  Nonzeros           :  620946
  RHS nonzeros       :  135126

Variables            : Min LB: -5000.000        Max UB: 1000000.       
Objective nonzeros   : Min   : 0.008333333      Max   : 180.0000       
Linear constraints   :
  Nonzeros           : Min   : 0.001000000      Max   : 1000000.       
  RHS nonzeros       : Min   : 0.001000000      Max   : 1000000.       
CPLEX> CPXPARAM_Parallel                                -1
CPXPARAM_Emphasis_MIP                            1
CPXPARAM_DetTimeLimit                            65000
CPXPARAM_MIP_Tolerances_MIPGap                   0.01
CPXPARAM_MIP_Tolerances_Integrality              9.9999999999999998e-13
Tried aggregator 3 times.
MIP Presolve eliminated 180296 rows and 40392 columns.
MIP Presolve added 6301 rows and 0 columns.
MIP Presolve modified 50308 coefficients.
Aggregator did 25848 substitutions.
Reduced MIP has 47120 rows, 40091 columns, and 153144 nonzeros.
Reduced MIP has 15752 binaries, 0 generals, 0 SOSs, and 0 indicators.
Presolve time = 0.59 sec. (393.15 ticks)
Probing fixed 867 vars, tightened 19114 bounds.
Probing time = 0.41 sec. (20.03 ticks)
Tried aggregator 2 times.
MIP Presolve eliminated 2036 rows and 1735 columns.
MIP Presolve modified 5641 coefficients.
Aggregator did 96 substitutions.
Reduced MIP has 44988 rows, 38260 columns, and 132031 nonzeros.
Reduced MIP has 14885 binaries, 0 generals, 0 SOSs, and 0 indicators.
Presolve time = 0.22 sec. (233.42 ticks)
Probing fixed 0 vars, tightened 587 bounds.
Probing time = 0.50 sec. (15.14 ticks)
Clique table members: 79121.
MIP emphasis: integer feasibility.
MIP search method: dynamic search.
Parallel mode: opportunistic, using up to 32 threads.
Root relaxation solution time = 1.28 sec. (2379.67 ticks)

        Nodes                                         Cuts/
   Node  Left     Objective  IInf  Best Integer    Best Bound    ItCnt     Gap

      0     0    -6094.2546   900                  -6094.2546    11674         
      0     0    -6096.0086    31                     Cuts: 9    11687         
      0     0    -6096.0086    30                     Cuts: 4    11691         
      0     0    -6096.0086    25                   Covers: 1    11695         
      0    25    -6104.7007    19                     Cuts: 3    11864         
Elapsed time = 8.64 sec. (5229.82 ticks, tree = 0.02 MB, solutions = 0)
    358    30    -6142.8071    18                  -6097.1433    11877         
    731   271    infeasible                        -6097.1433    13362         
   1092   734   -38158.1330    43                  -6097.1433    24242         
   1403   953   -49980.6427    35                  -6097.1433    28071         
   1636  1074    -6145.6357    13                  -6097.1433    29686         
   2028  1296    -6143.0652    15                  -6097.1433    32210         
   2422  1368    -6108.0504    12                  -6097.1433    32751         
   2782  1783    -6141.9876    10                  -6097.1433    37533         
*  2963+ 1377                        -6178.7374    -6097.1433             1.32%
*  3247  1352      integral     0    -6178.5333    -6097.1433    45184    1.32%
*  3423  1410      integral     0    -6178.3828    -6097.1433    46026    1.31%
*  4017  1325      integral     0    -6158.4826    -6097.1433    47403    1.00%
   4287  1383    -6134.0936     8    -6158.4826    -6097.1433    47647    1.00%
Elapsed time = 25.61 sec. (8224.14 ticks, tree = 80.35 MB, solutions = 10)

Cover cuts applied:  10
Implied bound cuts applied:  5
Flow cuts applied:  4
Gomory fractional cuts applied:  3

Root node processing (before b&c):
  Real time             =    5.83 sec. (5195.32 ticks)
Parallel b&c, 32 threads:
  Real time             =   20.31 sec. (3282.14 ticks)
  Sync time (average)   =    1.75 sec.
  Wait time (average)   =    0.00 sec.
                          ------------
Total (root+branch&cut) =   26.14 sec. (8477.46 ticks)

Solution pool: 10 solutions saved.

MIP - Integer optimal, tolerance (0.01/1e-06):  Objective = -6.1584825987e+03
Current MIP best bound = -6.0971432971e+03 (gap = 61.3393, 1.00%)
Solution time =   26.20 sec.  Iterations = 51406  Nodes = 4328 (1785)
Deterministic time = 8477.77 ticks  (323.54 ticks/sec)

CPLEX> Incumbent solution written to file 'C:\Users\llavin\Desktop\test826\logs\tmp0w5c671z.cplex.sol'.
CPLEX> NOTE: no warmstart specified for MIP iteration, default behavior is true
NOTE: resolving with all competitive generators using storage-only solution to warmstart
Solving...

Welcome to IBM(R) ILOG(R) CPLEX(R) Interactive Optimizer 12.9.0.0
  with Simplex, Mixed Integer & Barrier Optimizers
5725-A06 5725-A29 5724-Y48 5724-Y49 5724-Y54 5724-Y55 5655-Y21
Copyright IBM Corp. 1988, 2019.  All Rights Reserved.

Type 'help' for a list of available commands.
Type 'help' followed by a command name for more
information on commands.

CPLEX> Logfile 'cplex.log' closed.
Logfile 'C:\Users\llavin\Desktop\test826\logs\tmp319lqdf2.cplex.log' open.
CPLEX> New value for parallel optimization mode: -1
CPLEX> New value for emphasis for MIP optimization: 1
CPLEX> New value for mixed integer optimality gap tolerance: 0.01
CPLEX> New value for integrality tolerance: 1e-12
CPLEX> New value for deterministic time limit in ticks: 65000
CPLEX> Problem 'C:\Users\llavin\Desktop\test826\logs\tmprck49h48.pyomo.lp' read.
Read time = 0.48 sec. (28.96 ticks)
CPLEX> MIP start file 'C:\Users\llavin\Desktop\test826\logs\tmpp_xfgotu.cplex.mst' read.
CPLEX> Problem name         : C:\Users\llavin\Desktop\test826\logs\tmprck49h48.pyomo.lp
Objective sense      : Maximize
Variables            :  109243  [Nneg: 1,  Box: 45502,  Free: 8928,
                                 Binary: 54812]
Objective nonzeros   :   18877
Linear constraints   :  246963  [Less: 82886,  Greater: 118460,  Equal: 45617]
  Nonzeros           :  620946
  RHS nonzeros       :  135126

Variables            : Min LB: -5000.000        Max UB: 1000000.       
Objective nonzeros   : Min   : 0.008333333      Max   : 180.0000       
Linear constraints   :
  Nonzeros           : Min   : 0.001000000      Max   : 1000000.       
  RHS nonzeros       : Min   : 0.001000000      Max   : 1000000.       
CPLEX> CPXPARAM_Parallel                                -1
CPXPARAM_Emphasis_MIP                            1
CPXPARAM_DetTimeLimit                            65000
CPXPARAM_MIP_Tolerances_MIPGap                   0.01
CPXPARAM_MIP_Tolerances_Integrality              9.9999999999999998e-13
Warning:  No solution found from 1 MIP starts.
Retaining values of one MIP start for possible repair.
Tried aggregator 3 times.
MIP Presolve eliminated 180296 rows and 41832 columns.
MIP Presolve added 6301 rows and 0 columns.
MIP Presolve modified 50308 coefficients.
Aggregator did 25848 substitutions.
Reduced MIP has 47120 rows, 40091 columns, and 153144 nonzeros.
Reduced MIP has 15752 binaries, 0 generals, 0 SOSs, and 0 indicators.
Presolve time = 0.56 sec. (393.88 ticks)
Probing fixed 867 vars, tightened 19114 bounds.
Probing time = 0.38 sec. (20.03 ticks)
Tried aggregator 2 times.
MIP Presolve eliminated 2036 rows and 1735 columns.
MIP Presolve modified 5641 coefficients.
Aggregator did 96 substitutions.
Reduced MIP has 44988 rows, 38260 columns, and 132031 nonzeros.
Reduced MIP has 14885 binaries, 0 generals, 0 SOSs, and 0 indicators.
Presolve time = 0.22 sec. (233.43 ticks)
Probing fixed 0 vars, tightened 587 bounds.
Probing time = 0.48 sec. (15.14 ticks)
Clique table members: 79121.
MIP emphasis: integer feasibility.
MIP search method: dynamic search.
Parallel mode: opportunistic, using up to 32 threads.
Root relaxation solution time = 1.16 sec. (2148.06 ticks)

        Nodes                                         Cuts/
   Node  Left     Objective  IInf  Best Integer    Best Bound    ItCnt     Gap

      0     0    24111.5303   993                  24111.5303    12103         
      0     0    24088.6803    96                   Cuts: 105    12205         
      0     0    24071.8781    89                    Cuts: 74    12272         
      0     0    24060.9117    77                    Cuts: 51    12313         
Repair heuristic found nothing.
      0    40    23989.4507    67                    Cuts: 11    12873         
Elapsed time = 7.55 sec. (4470.77 ticks, tree = 0.06 MB, solutions = 0)
    301    78    22866.8001    75                  24004.5375    13418         
    653   348    23501.7149    60                  24004.5375    17185         
   1031   651    23486.4754    45                  24004.5375    21237         
   1344  1032    23580.1258    16                  24004.5375    26965         
   1651  1374    22614.5448    44                  24004.5375    34298         
   1970  1489    22635.6181    56                  24004.5375    37229         
   2241  1682    23555.0429    41                  24004.5375    42327         
   2546  2069    23674.0755    50                  24004.5375    55300         
   2856  2216    23885.3944    33                  24004.5375    59437         
   4052  3140    16212.8878   115                  24004.5375    98794         
Elapsed time = 25.63 sec. (7577.65 ticks, tree = 139.85 MB, solutions = 0)
   5212  4011    23939.4771    42                  24004.5375   134738         
   5712  3130    infeasible                        24004.5375   104735         
   5713  4717    22281.0730   105                  24004.5375   190120         
   6599   209    16515.9775   100                  24004.5375   196590         
   7940  1250     6280.8251    77                  24004.5375   247823         
   9259  2031    23951.5155    82                  24004.5375   281386         
  10619  3420    23911.4942    60                  24004.5375   346653         
  12055  4155    21743.6389    71                  24004.5375   382552         
  13433  5557    23871.8283    93                  24004.5375   458868         
  14595  5675    23715.3774    51                  24004.5375   467569         
Elapsed time = 80.92 sec. (21183.07 ticks, tree = 147.79 MB, solutions = 0)
  15839  6627    18833.7897    97                  24004.5375   538608         
  17151  7356    23715.3774    51                  24004.5375   594133         
  18434  7974    23586.5163    63                  24004.5375   632681         
  19607  8746    22586.2634    80                  24004.5375   677127         
  20734  9922    11911.5874   118                  24004.5375   735204         
  21930 11005    19493.1492    90                  24004.5375   782401         
  23182 12587    23690.9523    38                  24004.5375   853744         
  24418 12720    21745.5165    37                  24004.5375   858943         
  25546 13689    22805.8944    58                  24004.5375   896310         
  26619 13367    10711.6690    96                  24004.5375   885408         
Elapsed time = 150.59 sec. (30732.09 ticks, tree = 276.35 MB, solutions = 0)
  27869 14629    19388.4545    60                  24004.5375   933979         
  29242 14776    23643.9036    47                  24004.5375   938033         
  30640 16982    23511.7600    41                  24004.5375  1028392         
  32041 16302    infeasible                        24004.5375  1005942         
  33504 17786    23692.9897    42                  24004.5375  1057597         
  34945 18080    19290.7847    61                  24004.5375  1069002         
  36247 19211    23728.0316    46                  24004.5375  1118146         
  37424 20531    16434.7266    81                  24004.5375  1174628         
  38346 22708    22584.7396    43                  24004.5375  1265564         
  39495 22736    23710.3524    40                  24004.5375  1267352         
Elapsed time = 238.72 sec. (40274.06 ticks, tree = 414.06 MB, solutions = 0)
  40771 23672    23433.8567    39                  24004.5375  1314362         
  42140 24388    infeasible                        24004.5375  1348171         
  43403 25109    infeasible                        24004.5375  1380358         
  44727 26981    23721.6647    51                  24004.5375  1453788         
  46002 26286    21635.9184    50                  24004.5375  1427551         
  47341 27812    infeasible                        24004.5375  1484652         
  48738 27413    23608.8419    49                  24004.5375  1469570         
  50174 30285    infeasible                        24004.5375  1592140         
  51559 31444    infeasible                        24004.5375  1640812         
  52992 31132    23485.2088    37                  24004.5375  1628758         
Elapsed time = 277.58 sec. (49817.39 ticks, tree = 533.21 MB, solutions = 0)
  54282 31337    infeasible                        24004.5375  1636241         
  55533 33041    23684.2800    54                  24004.5375  1715335         
  56768 34369    23755.8313    54                  24004.5375  1770799         
  58063 34512    23539.4686    21                  24004.5375  1775231         
  59337 35664    23544.2260    49                  24004.5375  1830472         
  60606 36570    21656.0305    53                  24004.5375  1874416         
  61938 37855    23521.3441    45                  24004.5375  1928321         
  63241 37667    23268.9882    63                  24004.5375  1921655         
  64430 39526    infeasible                        24004.5375  1999504         
  65412 40137    23712.2374    46                  24004.5375  2026627         
Elapsed time = 282.95 sec. (59360.51 ticks, tree = 664.31 MB, solutions = 0)
  66045 40031    19629.1969    92                  24004.5375  2019938         

Clique cuts applied:  5
Cover cuts applied:  24
Implied bound cuts applied:  7
Flow cuts applied:  158
Mixed integer rounding cuts applied:  5
Zero-half cuts applied:  3
Gomory fractional cuts applied:  7

Root node processing (before b&c):
  Real time             =    5.09 sec. (4411.53 ticks)
Parallel b&c, 32 threads:
  Real time             =  284.25 sec. (60637.30 ticks)
  Sync time (average)   =    3.05 sec.
  Wait time (average)   =    0.36 sec.
                          ------------
Total (root+branch&cut) =  289.34 sec. (65048.83 ticks)


MIP - Deterministic time limit exceeded, no integer solution.
Current MIP best bound =  2.4004537470e+04 (gap is infinite)
Solution time =  289.38 sec.  Iterations = 2150245  Nodes = 66192 (42652)
Deterministic time = 65049.14 ticks  (224.79 ticks/sec)

CPLEX> CPLEX Error  1217: No solution exists.
No file written.
CPLEX> gap is infinite, so writing 0
Exporting results... 
